<?xml version = "1.0" standalone="yes"?>
<!-- This file has been generated by DOcplex version 2.23.222  -->
<CPLEXSolution version="1.0">
 <header
   problemName="CVRP"
   objectiveValue="5436.2"
  />
 <variables>
  <variable name="x_0_3" index="2" value="1.00000"/>
  <variable name="x_0_4" index="3" value="1.00000"/>
  <variable name="x_0_8" index="7" value="1.00000"/>
  <variable name="x_0_9" index="8" value="1.00000"/>
  <variable name="x_1_2" index="11" value="1.00000"/>
  <variable name="x_2_0" index="20" value="1.00000"/>
  <variable name="x_3_7" index="36" value="1.00000"/>
  <variable name="x_4_0" index="40" value="1.00000"/>
  <variable name="x_5_0" index="50" value="1.00000"/>
  <variable name="x_6_1" index="61" value="1.00000"/>
  <variable name="x_7_0" index="70" value="1.00000"/>
  <variable name="x_8_5" index="85" value="1.00000"/>
  <variable name="x_9_10" index="99" value="1.00000"/>
  <variable name="x_10_6" index="106" value="1.00000"/>
  <variable name="u_1" index="110" value="65.00000"/>
  <variable name="u_2" index="111" value="71.00000"/>
  <variable name="u_3" index="112" value="38.00000"/>
  <variable name="u_4" index="113" value="50.00000"/>
  <variable name="u_5" index="114" value="58.00000"/>
  <variable name="u_6" index="115" value="31.00000"/>
  <variable name="u_7" index="116" value="51.00000"/>
  <variable name="u_8" index="117" value="3.00000"/>
  <variable name="u_9" index="118" value="13.00000"/>
  <variable name="u_10" index="119" value="21.00000"/>
 </variables>
</CPLEXSolution>
